989
1 0 5 880 1 881 1 864 1 865 1 866 1
2 0 5 33 1 325 1 740 1 576 1 481 1
3 0 5 100 1 159 1 776 1 102 1 165 1
4 0 5 617 1 537 1 496 1 772 1 99 1
5 0 5 45 1 707 1 816 1 570 1 792 1
6 0 5 539 1 320 1 220 1 700 1 588 1
7 0 5 186 1 334 1 738 1 425 1 293 1
8 0 5 799 1 514 1 407 1 809 1 293 1
9 0 5 289 1 356 1 355 1 501 1 582 1
10 0 5 227 1 93 1 47 1 767 1 660 1
11 0 5 208 1 435 1 464 1 761 1 793 1
12 0 5 653 1 273 1 558 1 575 1 528 1
13 0 5 543 1 683 1 488 1 603 1 789 1
14 0 5 817 1 215 1 357 1 267 1 165 1
15 0 5 809 1 518 1 514 1 147 1 726 1
16 0 5 236 1 771 1 682 1 871 1 873 1
17 0 5 181 1 598 1 732 1 220 1 700 1
18 0 5 73 1 774 1 360 1 752 1 149 1
19 0 5 697 1 405 1 69 1 296 1 524 1
20 0 5 290 1 365 1 82 1 41 1 152 1
21 0 5 122 1 696 1 207 1 558 1 108 1
22 0 5 361 1 375 1 648 1 210 1 329 1
23 0 5 570 1 35 1 553 1 151 1 276 1
24 0 5 613 1 493 1 641 1 26 1 312 1
25 0 5 46 1 416 1 638 1 418 1 785 1
26 0 5 493 1 312 1 447 1 24 1 613 1
27 0 5 450 1 174 1 452 1 242 1 305 1
28 0 5 142 1 639 1 180 1 445 1 273 1
29 0 5 705 1 294 1 386 1 642 1 331 1
30 0 5 540 1 237 1 32 1 429 1 722 1
31 0 5 441 1 594 1 311 1 807 1 527 1
32 0 5 593 1 722 1 704 1 30 1 237 1
33 0 5 325 1 2 1 740 1 141 1 46 1
34 0 5 421 1 763 1 66 1 309 1 95 1
35 0 5 506 1 668 1 151 1 23 1 491 1
36 0 5 93 1 675 1 657 1 767 1 197 1
37 0 5 315 1 219 1 457 1 670 1 175 1
38 0 5 359 1 686 1 98 1 54 1 813 1
39 0 5 545 1 61 1 448 1 693 1 724 1
40 0 5 506 1 219 1 35 1 668 1 151 1
41 0 5 82 1 87 1 53 1 318 1 20 1
42 0 5 235 1 105 1 589 1 717 1 191 1
43 0 5 210 1 791 1 375 1 333 1 330 1
44 0 5 666 1 542 1 90 1 776 1 321 1
45 0 5 570 1 5 1 707 1 23 1 792 1
46 0 5 141 1 263 1 416 1 325 1 428 1
47 0 5 660 1 188 1 569 1 802 1 10 1
48 0 5 604 1 178 1 324 1 238 1 376 1
49 0 5 468 1 295 1 108 1 653 1 528 1
50 0 5 796 1 764 1 112 1 307 1 366 1
51 0 5 794 1 300 1 784 1 634 1 145 1
52 0 5 446 1 230 1 160 1 665 1 136 1
53 0 5 290 1 41 1 397 1 87 1 625 1
54 0 5 38 1 268 1 349 1 67 1 591 1
55 0 5 401 1 709 1 762 1 101 1 632 1
56 0 5 284 1 400 1 385 1 219 1 23 1
57 0 5 819 1 720 1 129 1 374 1 486 1
58 0 5 424 1 643 1 119 1 85 1 651 1
59 0 5 314 1 160 1 230 1 522 1 609 1
60 0 5 692 1 322 1 787 1 811 1 644 1
61 0 5 693 1 695 1 287 1 39 1 545 1
62 0 5 221 1 373 1 135 1 594 1 236 1
63 0 5 158 1 632 1 96 1 552 1 766 1
64 0 5 549 1 122 1 137 1 302 1 94 1
65 0 5 304 1 672 1 715 1 344 1 870 1
66 0 5 703 1 95 1 370 1 34 1 752 1
67 0 5 54 1 268 1 591 1 349 1 392 1
68 0 5 162 1 584 1 271 1 348 1 761 1
69 0 5 19 1 697 1 764 1 296 1 537 1
70 0 5 611 1 427 1 495 1 340 1 379 1
71 0 5 677 1 523 1 226 1 563 1 814 1
72 0 5 538 1 354 1 192 1 243 1 535 1
73 0 5 133 1 18 1 75 1 103 1 607 1
74 0 5 678 1 531 1 669 1 453 1 775 1
75 0 5 133 1 556 1 103 1 73 1 287 1
76 0 5 89 1 693 1 61 1 444 1 695 1
77 0 5 510 1 115 1 425 1 224 1 779 1
78 0 5 200 1 680 1 220 1 539 1 753 1
79 0 5 128 1 234 1 445 1 575 1 273 1
80 0 5 715 1 688 1 343 1 574 1 633 1
81 0 5 419 1 640 1 616 1 557 1 292 1
82 0 5 41 1 87 1 20 1 53 1 318 1
83 0 5 297 1 466 1 492 1 353 1 438 1
84 0 5 409 1 114 1 394 1 239 1 723 1
85 0 5 410 1 804 1 58 1 424 1 756 1
86 0 5 302 1 614 1 328 1 549 1 64 1
87 0 5 82 1 41 1 53 1 718 1 415 1
88 0 5 316 1 97 1 175 1 335 1 315 1
89 0 5 463 1 695 1 76 1 444 1 693 1
90 0 5 321 1 395 1 44 1 666 1 542 1
91 0 5 172 1 463 1 444 1 569 1 47 1
92 0 5 816 1 482 1 118 1 338 1 5 1
93 0 5 36 1 675 1 227 1 10 1 767 1
94 0 5 696 1 430 1 64 1 168 1 21 1
95 0 5 309 1 66 1 752 1 34 1 421 1
96 0 5 158 1 110 1 63 1 766 1 632 1
97 0 5 107 1 684 1 88 1 800 1 316 1
98 0 5 813 1 38 1 359 1 686 1 431 1
99 0 5 496 1 788 1 772 1 269 1 663 1
100 0 5 3 1 159 1 776 1 102 1 165 1
101 0 5 709 1 762 1 504 1 401 1 55 1
102 0 5 159 1 356 1 100 1 165 1 3 1
103 0 5 585 1 133 1 75 1 556 1 287 1
104 0 5 398 1 329 1 480 1 378 1 648 1
105 0 5 508 1 42 1 442 1 410 1 235 1
106 0 5 323 1 597 1 431 1 503 1 813 1
107 0 5 97 1 800 1 175 1 684 1 710 1
108 0 5 49 1 207 1 122 1 295 1 549 1
109 0 5 288 1 447 1 337 1 521 1 136 1
110 0 5 319 1 96 1 766 1 202 1 636 1
111 0 5 656 1 403 1 497 1 501 1 251 1
112 0 5 50 1 366 1 764 1 69 1 420 1
113 0 5 780 1 671 1 755 1 292 1 602 1
114 0 5 239 1 84 1 256 1 394 1 645 1
115 0 5 224 1 637 1 77 1 779 1 623 1
116 0 5 654 1 714 1 778 1 798 1 581 1
117 0 5 685 1 260 1 512 1 746 1 393 1
118 0 5 92 1 482 1 338 1 400 1 816 1
119 0 5 781 1 58 1 245 1 643 1 567 1
120 0 5 758 1 188 1 172 1 187 1 520 1
121 0 5 536 1 170 1 763 1 698 1 454 1
122 0 5 21 1 64 1 108 1 207 1 430 1
123 0 5 216 1 178 1 819 1 608 1 48 1
124 0 5 520 1 167 1 473 1 802 1 280 1
125 0 5 480 1 518 1 147 1 378 1 472 1
126 0 5 555 1 429 1 156 1 336 1 237 1
127 0 5 638 1 499 1 177 1 155 1 232 1
128 0 5 79 1 234 1 445 1 575 1 413 1
129 0 5 713 1 667 1 818 1 57 1 249 1
130 0 5 191 1 279 1 513 1 340 1 379 1
131 0 5 333 1 451 1 470 1 757 1 791 1
132 0 5 797 1 653 1 619 1 372 1 558 1
133 0 5 75 1 73 1 103 1 585 1 556 1
134 0 5 757 1 253 1 747 1 811 1 787 1
135 0 5 351 1 788 1 62 1 269 1 201 1
136 0 5 521 1 669 1 109 1 74 1 52 1
137 0 5 430 1 64 1 594 1 614 1 527 1
138 0 5 437 1 792 1 659 1 805 1 182 1
139 0 5 724 1 448 1 746 1 393 1 512 1
140 0 5 275 1 332 1 154 1 692 1 757 1
141 0 5 481 1 240 1 263 1 559 1 46 1
142 0 5 28 1 639 1 300 1 445 1 562 1
143 0 5 586 1 211 1 573 1 727 1 341 1
144 0 5 269 1 465 1 405 1 498 1 524 1
145 0 5 455 1 472 1 397 1 406 1 784 1
146 0 5 233 1 534 1 199 1 238 1 48 1
147 0 5 472 1 125 1 480 1 518 1 15 1
148 0 5 163 1 593 1 773 1 412 1 237 1
149 0 5 607 1 388 1 360 1 18 1 774 1
150 0 5 729 1 383 1 297 1 212 1 466 1
151 0 5 668 1 35 1 23 1 284 1 40 1
152 0 5 153 1 511 1 415 1 790 1 725 1
153 0 5 152 1 402 1 485 1 541 1 415 1
154 0 5 275 1 451 1 757 1 692 1 140 1
155 0 5 232 1 499 1 127 1 744 1 258 1
156 0 5 336 1 578 1 728 1 126 1 458 1
157 0 5 609 1 193 1 267 1 817 1 278 1
158 0 5 63 1 96 1 766 1 552 1 632 1
159 0 5 3 1 100 1 102 1 776 1 356 1
160 0 5 59 1 314 1 225 1 522 1 230 1
161 0 5 272 1 759 1 743 1 303 1 484 1
162 0 5 348 1 345 1 68 1 601 1 761 1
163 0 5 148 1 593 1 565 1 773 1 750 1
164 0 5 203 1 735 1 485 1 307 1 185 1
165 0 5 357 1 215 1 102 1 14 1 100 1
166 0 5 618 1 292 1 683 1 171 1 13 1
167 0 5 291 1 675 1 565 1 124 1 760 1
168 0 5 619 1 21 1 696 1 94 1 112 1
169 0 5 748 1 285 1 676 1 278 1 264 1
170 0 5 388 1 763 1 121 1 149 1 607 1
171 0 5 376 1 789 1 434 1 324 1 178 1
172 0 5 483 1 189 1 120 1 91 1 463 1
173 0 5 193 1 547 1 285 1 278 1 264 1
174 0 5 765 1 450 1 27 1 305 1 677 1
175 0 5 800 1 315 1 107 1 88 1 457 1
176 0 5 337 1 641 1 521 1 109 1 678 1
177 0 5 248 1 127 1 647 1 271 1 499 1
178 0 5 48 1 324 1 604 1 376 1 123 1
179 0 5 246 1 452 1 708 1 76 1 500 1
180 0 5 372 1 639 1 797 1 562 1 28 1
181 0 5 732 1 17 1 139 1 598 1 260 1
182 0 5 590 1 805 1 554 1 138 1 659 1
183 0 5 744 1 248 1 271 1 499 1 584 1
184 0 5 572 1 520 1 519 1 367 1 487 1
185 0 5 661 1 735 1 772 1 496 1 164 1
186 0 5 7 1 738 1 510 1 334 1 425 1
187 0 5 721 1 702 1 751 1 758 1 120 1
188 0 5 660 1 120 1 802 1 758 1 520 1
189 0 5 200 1 172 1 680 1 483 1 78 1
190 0 5 262 1 405 1 498 1 524 1 465 1
191 0 5 130 1 340 1 235 1 513 1 42 1
192 0 5 540 1 354 1 429 1 72 1 243 1
193 0 5 173 1 157 1 609 1 264 1 547 1
194 0 5 478 1 217 1 687 1 266 1 380 1
195 0 5 673 1 221 1 808 1 144 1 190 1
196 0 5 739 1 546 1 736 1 204 1 650 1
197 0 5 362 1 657 1 750 1 675 1 36 1
198 0 5 532 1 467 1 657 1 362 1 767 1
199 0 5 233 1 146 1 123 1 216 1 608 1
200 0 5 189 1 78 1 605 1 551 1 680 1
201 0 5 663 1 731 1 788 1 351 1 308 1
202 0 5 636 1 261 1 319 1 659 1 286 1
203 0 5 164 1 658 1 485 1 706 1 299 1
204 0 5 546 1 278 1 768 1 196 1 736 1
205 0 5 615 1 206 1 653 1 431 1 270 1
206 0 5 369 1 205 1 615 1 528 1 653 1
207 0 5 295 1 108 1 122 1 21 1 64 1
208 0 5 11 1 793 1 504 1 464 1 435 1
209 0 5 577 1 583 1 694 1 347 1 257 1
210 0 5 43 1 375 1 333 1 451 1 791 1
211 0 5 730 1 727 1 143 1 394 1 645 1
212 0 5 383 1 786 1 560 1 266 1 399 1
213 0 5 471 1 865 1 866 1 867 1 868 1
214 0 5 770 1 503 1 438 1 323 1 502 1
215 0 5 165 1 357 1 14 1 650 1 817 1
216 0 5 608 1 667 1 249 1 819 1 123 1
217 0 5 266 1 194 1 478 1 560 1 687 1
218 0 5 701 1 599 1 610 1 688 1 633 1
219 0 5 37 1 385 1 40 1 284 1 56 1
220 0 5 539 1 680 1 78 1 200 1 17 1
221 0 5 62 1 673 1 195 1 269 1 498 1
222 0 5 494 1 323 1 250 1 503 1 106 1
223 0 5 719 1 769 1 592 1 282 1 355 1
224 0 5 115 1 637 1 77 1 779 1 623 1
225 0 5 698 1 421 1 563 1 547 1 264 1
226 0 5 765 1 305 1 677 1 71 1 449 1
227 0 5 10 1 93 1 767 1 36 1 760 1
228 0 5 564 1 610 1 389 1 688 1 486 1
229 0 5 515 1 235 1 571 1 379 1 130 1
230 0 5 665 1 566 1 52 1 59 1 288 1
231 0 5 487 1 810 1 578 1 237 1 519 1
232 0 5 155 1 409 1 723 1 499 1 638 1
233 0 5 146 1 199 1 123 1 238 1 216 1
234 0 5 79 1 128 1 413 1 476 1 575 1
235 0 5 42 1 379 1 229 1 571 1 340 1
236 0 5 311 1 390 1 62 1 594 1 527 1
237 0 5 30 1 458 1 810 1 578 1 429 1
238 0 5 604 1 48 1 146 1 233 1 324 1
239 0 5 394 1 114 1 84 1 586 1 645 1
240 0 5 141 1 481 1 740 1 559 1 409 1
241 0 5 710 1 684 1 358 1 118 1 800 1
242 0 5 444 1 91 1 27 1 452 1 463 1
243 0 5 354 1 535 1 382 1 700 1 192 1
244 0 5 500 1 708 1 388 1 452 1 607 1
245 0 5 326 1 567 1 119 1 459 1 643 1
246 0 5 179 1 452 1 708 1 76 1 812 1
247 0 5 579 1 567 1 459 1 577 1 294 1
248 0 5 271 1 177 1 647 1 183 1 744 1
249 0 5 272 1 608 1 216 1 720 1 129 1
250 0 5 380 1 494 1 222 1 478 1 687 1
251 0 5 497 1 391 1 377 1 350 1 630 1
252 0 5 582 1 387 1 289 1 440 1 769 1
253 0 5 134 1 596 1 811 1 757 1 292 1
254 0 5 803 1 200 1 753 1 78 1 545 1
255 0 5 664 1 622 1 479 1 529 1 339 1
256 0 5 645 1 257 1 114 1 84 1 481 1
257 0 5 461 1 645 1 550 1 583 1 256 1
258 0 5 281 1 409 1 499 1 626 1 723 1
259 0 5 443 1 368 1 145 1 562 1 595 1
260 0 5 117 1 512 1 746 1 181 1 724 1
261 0 5 636 1 479 1 202 1 659 1 552 1
262 0 5 190 1 524 1 807 1 498 1 405 1
263 0 5 559 1 141 1 745 1 46 1 481 1
264 0 5 370 1 703 1 547 1 285 1 421 1
265 0 5 282 1 497 1 592 1 391 1 251 1
266 0 5 560 1 217 1 194 1 478 1 684 1
267 0 5 440 1 817 1 157 1 14 1 278 1
268 0 5 591 1 503 1 54 1 349 1 67 1
269 0 5 144 1 99 1 617 1 496 1 351 1
270 0 5 662 1 137 1 295 1 489 1 108 1
271 0 5 584 1 248 1 647 1 68 1 183 1
272 0 5 249 1 667 1 161 1 818 1 129 1
273 0 5 445 1 575 1 12 1 128 1 28 1
274 0 5 676 1 309 1 748 1 768 1 169 1
275 0 5 140 1 154 1 451 1 692 1 757 1
276 0 5 553 1 741 1 23 1 568 1 570 1
277 0 5 423 1 718 1 53 1 474 1 87 1
278 0 5 204 1 650 1 169 1 546 1 196 1
279 0 5 513 1 327 1 130 1 340 1 422 1
280 0 5 475 1 367 1 760 1 124 1 572 1
281 0 5 258 1 723 1 712 1 626 1 248 1
282 0 5 265 1 592 1 719 1 497 1 223 1
283 0 5 374 1 486 1 292 1 298 1 596 1
284 0 5 385 1 56 1 151 1 668 1 219 1
285 0 5 169 1 264 1 547 1 173 1 66 1
286 0 5 568 1 319 1 590 1 202 1 396 1
287 0 5 456 1 556 1 61 1 812 1 693 1
288 0 5 109 1 665 1 447 1 230 1 387 1
289 0 5 9 1 356 1 440 1 582 1 355 1
290 0 5 53 1 20 1 631 1 415 1 718 1
291 0 5 167 1 802 1 760 1 124 1 565 1
292 0 5 596 1 283 1 253 1 602 1 671 1
293 0 5 378 1 514 1 7 1 398 1 334 1
294 0 5 579 1 331 1 29 1 652 1 624 1
295 0 5 528 1 207 1 558 1 49 1 108 1
296 0 5 405 1 19 1 69 1 524 1 696 1
297 0 5 492 1 83 1 150 1 353 1 729 1
298 0 5 374 1 434 1 283 1 486 1 720 1
299 0 5 308 1 735 1 203 1 164 1 772 1
300 0 5 51 1 142 1 639 1 794 1 784 1
301 0 5 460 1 423 1 318 1 371 1 534 1
302 0 5 549 1 86 1 614 1 64 1 689 1
303 0 5 743 1 759 1 541 1 415 1 161 1
304 0 5 65 1 672 1 699 1 544 1 548 1
305 0 5 765 1 226 1 174 1 500 1 677 1
306 0 5 871 1 863 1 864 1 865 1 866 1
307 0 5 796 1 764 1 661 1 164 1 50 1
308 0 5 299 1 201 1 402 1 749 1 733 1
309 0 5 95 1 752 1 676 1 34 1 66 1
310 0 5 414 1 682 1 344 1 715 1 548 1
311 0 5 594 1 807 1 31 1 808 1 441 1
312 0 5 447 1 26 1 493 1 337 1 109 1
313 0 5 550 1 583 1 730 1 347 1 257 1
314 0 5 59 1 522 1 160 1 563 1 230 1
315 0 5 37 1 175 1 457 1 800 1 670 1
316 0 5 88 1 606 1 97 1 687 1 194 1
317 0 5 446 1 143 1 727 1 522 1 669 1
318 0 5 534 1 301 1 423 1 679 1 41 1
319 0 5 110 1 286 1 202 1 766 1 636 1
320 0 5 526 1 728 1 578 1 6 1 700 1
321 0 5 395 1 90 1 666 1 542 1 44 1
322 0 5 628 1 60 1 811 1 561 1 517 1
323 0 5 222 1 494 1 106 1 503 1 250 1
324 0 5 178 1 48 1 604 1 720 1 608 1
325 0 5 33 1 46 1 141 1 638 1 740 1
326 0 5 580 1 245 1 620 1 459 1 567 1
327 0 5 587 1 422 1 340 1 279 1 428 1
328 0 5 527 1 430 1 86 1 441 1 64 1
329 0 5 648 1 104 1 398 1 375 1 361 1
330 0 5 791 1 488 1 683 1 43 1 13 1
331 0 5 652 1 386 1 294 1 29 1 705 1
332 0 5 734 1 140 1 692 1 644 1 737 1
333 0 5 131 1 470 1 451 1 791 1 757 1
334 0 5 425 1 7 1 186 1 533 1 293 1
335 0 5 432 1 516 1 88 1 670 1 457 1
336 0 5 156 1 578 1 458 1 237 1 728 1
337 0 5 176 1 521 1 641 1 109 1 447 1
338 0 5 482 1 118 1 92 1 529 1 816 1
339 0 5 622 1 479 1 255 1 552 1 261 1
340 0 5 611 1 422 1 327 1 513 1 46 1
341 0 5 573 1 586 1 814 1 677 1 143 1
342 0 5 714 1 778 1 672 1 544 1 574 1
343 0 5 633 1 80 1 715 1 612 1 701 1
344 0 5 715 1 548 1 414 1 681 1 310 1
345 0 5 761 1 435 1 162 1 464 1 442 1
346 0 5 484 1 733 1 402 1 541 1 749 1
347 0 5 775 1 583 1 669 1 694 1 209 1
348 0 5 162 1 442 1 601 1 42 1 589 1
349 0 5 689 1 686 1 662 1 302 1 549 1
350 0 5 391 1 509 1 630 1 251 1 377 1
351 0 5 433 1 716 1 135 1 201 1 649 1
352 0 5 783 1 530 1 560 1 786 1 399 1
353 0 5 492 1 438 1 404 1 83 1 502 1
354 0 5 243 1 192 1 72 1 535 1 382 1
355 0 5 769 1 501 1 9 1 356 1 223 1
356 0 5 9 1 102 1 289 1 501 1 355 1
357 0 5 165 1 215 1 102 1 14 1 356 1
358 0 5 710 1 400 1 241 1 800 1 118 1
359 0 5 38 1 813 1 98 1 431 1 686 1
360 0 5 774 1 18 1 149 1 752 1 388 1
361 0 5 22 1 648 1 329 1 104 1 375 1
362 0 5 197 1 467 1 704 1 657 1 36 1
363 0 5 495 1 576 1 642 1 624 1 428 1
364 0 5 567 1 624 1 781 1 119 1 642 1
365 0 5 754 1 658 1 20 1 462 1 631 1
366 0 5 112 1 50 1 621 1 796 1 368 1
367 0 5 473 1 280 1 475 1 487 1 184 1
368 0 5 595 1 259 1 397 1 406 1 490 1
369 0 5 206 1 528 1 108 1 615 1 295 1
370 0 5 264 1 703 1 66 1 285 1 421 1
371 0 5 818 1 460 1 743 1 301 1 303 1
372 0 5 180 1 797 1 806 1 132 1 420 1
373 0 5 62 1 31 1 311 1 807 1 673 1
374 0 5 486 1 283 1 298 1 819 1 57 1
375 0 5 22 1 210 1 43 1 329 1 791 1
376 0 5 171 1 434 1 178 1 789 1 48 1
377 0 5 630 1 776 1 251 1 509 1 3 1
378 0 5 398 1 514 1 293 1 104 1 125 1
379 0 5 571 1 235 1 611 1 229 1 130 1
380 0 5 606 1 250 1 687 1 194 1 478 1
381 0 5 526 1 588 1 469 1 728 1 751 1
382 0 5 535 1 243 1 598 1 700 1 354 1
383 0 5 212 1 150 1 729 1 786 1 560 1
384 0 5 737 1 690 1 561 1 644 1 734 1
385 0 5 284 1 219 1 56 1 40 1 400 1
386 0 5 331 1 461 1 652 1 294 1 29 1
387 0 5 252 1 582 1 447 1 769 1 665 1
388 0 5 170 1 149 1 763 1 360 1 244 1
389 0 5 616 1 778 1 228 1 557 1 714 1
390 0 5 771 1 236 1 392 1 16 1 681 1
391 0 5 350 1 509 1 630 1 251 1 497 1
392 0 5 614 1 137 1 349 1 390 1 86 1
393 0 5 746 1 724 1 693 1 448 1 139 1
394 0 5 239 1 84 1 645 1 586 1 114 1
395 0 5 321 1 90 1 739 1 196 1 542 1
396 0 5 568 1 554 1 590 1 182 1 286 1
397 0 5 406 1 145 1 625 1 53 1 368 1
398 0 5 378 1 104 1 329 1 293 1 480 1
399 0 5 786 1 622 1 352 1 783 1 664 1
400 0 5 56 1 358 1 118 1 800 1 710 1
401 0 5 55 1 504 1 709 1 101 1 762 1
402 0 5 485 1 153 1 733 1 346 1 203 1
403 0 5 111 1 497 1 501 1 656 1 355 1
404 0 5 353 1 492 1 762 1 297 1 83 1
405 0 5 190 1 19 1 262 1 524 1 498 1
406 0 5 397 1 455 1 145 1 368 1 625 1
407 0 5 809 1 799 1 8 1 518 1 514 1
408 0 5 557 1 628 1 742 1 654 1 116 1
409 0 5 723 1 84 1 232 1 258 1 481 1
410 0 5 804 1 85 1 508 1 777 1 105 1
411 0 5 517 1 561 1 690 1 581 1 322 1
412 0 5 773 1 475 1 148 1 565 1 487 1
413 0 5 439 1 476 1 234 1 646 1 128 1
414 0 5 310 1 344 1 715 1 548 1 681 1
415 0 5 511 1 152 1 153 1 790 1 303 1
416 0 5 46 1 418 1 141 1 340 1 638 1
417 0 5 626 1 258 1 232 1 240 1 723 1
418 0 5 46 1 416 1 340 1 674 1 785 1
419 0 5 81 1 616 1 557 1 389 1 640 1
420 0 5 619 1 806 1 112 1 372 1 797 1
421 0 5 34 1 703 1 225 1 264 1 66 1
422 0 5 340 1 327 1 428 1 46 1 587 1
423 0 5 301 1 460 1 277 1 318 1 371 1
424 0 5 756 1 58 1 85 1 505 1 651 1
425 0 5 334 1 533 1 77 1 7 1 779 1
426 0 5 634 1 472 1 145 1 455 1 784 1
427 0 5 70 1 495 1 611 1 587 1 363 1
428 0 5 46 1 422 1 263 1 745 1 495 1
429 0 5 555 1 126 1 192 1 540 1 237 1
430 0 5 137 1 94 1 696 1 328 1 122 1
431 0 5 477 1 597 1 106 1 359 1 205 1
432 0 5 335 1 516 1 670 1 457 1 88 1
433 0 5 351 1 682 1 308 1 201 1 62 1
434 0 5 376 1 171 1 298 1 178 1 789 1
435 0 5 11 1 464 1 345 1 761 1 756 1
436 0 5 647 1 248 1 869 1 870 1 871 1
437 0 5 138 1 792 1 659 1 529 1 664 1
438 0 5 502 1 770 1 353 1 214 1 83 1
439 0 5 646 1 413 1 476 1 597 1 477 1
440 0 5 267 1 289 1 252 1 582 1 9 1
441 0 5 31 1 328 1 262 1 527 1 498 1
442 0 5 601 1 777 1 508 1 105 1 761 1
443 0 5 259 1 368 1 562 1 420 1 621 1
444 0 5 463 1 242 1 91 1 89 1 76 1
445 0 5 273 1 575 1 128 1 79 1 12 1
446 0 5 52 1 317 1 59 1 522 1 160 1
447 0 5 312 1 109 1 26 1 288 1 665 1
448 0 5 724 1 139 1 693 1 393 1 39 1
449 0 5 454 1 563 1 677 1 536 1 226 1
450 0 5 27 1 174 1 183 1 744 1 305 1
451 0 5 154 1 131 1 470 1 757 1 333 1
452 0 5 179 1 500 1 246 1 708 1 27 1
453 0 5 678 1 531 1 694 1 620 1 74 1
454 0 5 449 1 698 1 563 1 121 1 536 1
455 0 5 145 1 406 1 426 1 784 1 562 1
456 0 5 287 1 585 1 693 1 556 1 746 1
457 0 5 670 1 315 1 432 1 175 1 37 1
458 0 5 237 1 578 1 336 1 156 1 728 1
459 0 5 567 1 577 1 620 1 247 1 245 1
460 0 5 301 1 371 1 423 1 818 1 318 1
461 0 5 257 1 645 1 386 1 550 1 114 1
462 0 5 754 1 631 1 365 1 20 1 152 1
463 0 5 695 1 89 1 91 1 444 1 605 1
464 0 5 11 1 435 1 345 1 208 1 761 1
465 0 5 498 1 190 1 144 1 807 1 808 1
466 0 5 770 1 729 1 83 1 383 1 150 1
467 0 5 362 1 532 1 704 1 722 1 163 1
468 0 5 653 1 49 1 558 1 295 1 619 1
469 0 5 526 1 721 1 381 1 751 1 588 1
470 0 5 131 1 333 1 757 1 451 1 755 1
471 0 5 227 1 47 1 10 1 444 1 91 1
472 0 5 147 1 426 1 145 1 634 1 480 1
473 0 5 520 1 367 1 124 1 475 1 184 1
474 0 5 790 1 718 1 152 1 415 1 153 1
475 0 5 280 1 487 1 367 1 473 1 412 1
476 0 5 413 1 439 1 477 1 597 1 128 1
477 0 5 597 1 431 1 476 1 106 1 439 1
478 0 5 687 1 194 1 217 1 250 1 380 1
479 0 5 261 1 659 1 255 1 622 1 664 1
480 0 5 125 1 104 1 147 1 518 1 472 1
481 0 5 141 1 740 1 559 1 263 1 84 1
482 0 5 338 1 92 1 118 1 816 1 529 1
483 0 5 172 1 680 1 200 1 189 1 711 1
484 0 5 346 1 733 1 541 1 749 1 759 1
485 0 5 402 1 706 1 164 1 203 1 725 1
486 0 5 374 1 283 1 616 1 419 1 228 1
487 0 5 475 1 231 1 367 1 184 1 473 1
488 0 5 330 1 683 1 602 1 470 1 13 1
489 0 5 662 1 64 1 614 1 686 1 689 1
490 0 5 525 1 595 1 625 1 368 1 406 1
491 0 5 506 1 553 1 35 1 23 1 276 1
492 0 5 297 1 353 1 83 1 466 1 150 1
493 0 5 26 1 24 1 613 1 312 1 109 1
494 0 5 222 1 323 1 250 1 106 1 503 1
495 0 5 363 1 576 1 587 1 70 1 427 1
496 0 5 772 1 99 1 663 1 788 1 731 1
497 0 5 251 1 111 1 265 1 403 1 656 1
498 0 5 190 1 807 1 465 1 262 1 405 1
499 0 5 127 1 723 1 626 1 155 1 232 1
500 0 5 244 1 708 1 452 1 305 1 388 1
501 0 5 656 1 111 1 403 1 355 1 356 1
502 0 5 438 1 214 1 353 1 770 1 83 1
503 0 5 323 1 106 1 268 1 38 1 214 1
504 0 5 793 1 208 1 401 1 762 1 101 1
505 0 5 793 1 651 1 424 1 756 1 58 1
506 0 5 491 1 40 1 35 1 553 1 23 1
507 0 5 390 1 306 1 795 1 681 1 870 1
508 0 5 777 1 105 1 410 1 442 1 804 1
509 0 5 630 1 391 1 350 1 377 1 251 1
510 0 5 691 1 186 1 77 1 738 1 533 1
511 0 5 718 1 415 1 541 1 152 1 153 1
512 0 5 260 1 117 1 746 1 139 1 724 1
513 0 5 279 1 340 1 130 1 191 1 674 1
514 0 5 518 1 378 1 293 1 8 1 799 1
515 0 5 781 1 229 1 119 1 571 1 624 1
516 0 5 335 1 432 1 606 1 670 1 457 1
517 0 5 411 1 654 1 581 1 322 1 798 1
518 0 5 125 1 514 1 480 1 809 1 15 1
519 0 5 751 1 184 1 702 1 473 1 187 1
520 0 5 124 1 473 1 758 1 184 1 572 1
521 0 5 136 1 176 1 337 1 109 1 641 1
522 0 5 314 1 563 1 59 1 698 1 160 1
523 0 5 814 1 71 1 677 1 226 1 563 1
524 0 5 262 1 190 1 405 1 498 1 144 1
525 0 5 490 1 406 1 595 1 625 1 368 1
526 0 5 320 1 578 1 381 1 751 1 469 1
527 0 5 328 1 441 1 594 1 31 1 86 1
528 0 5 369 1 558 1 295 1 12 1 206 1
529 0 5 664 1 816 1 338 1 437 1 138 1
530 0 5 352 1 560 1 684 1 783 1 786 1
531 0 5 775 1 453 1 74 1 694 1 669 1
532 0 5 198 1 467 1 657 1 362 1 197 1
533 0 5 779 1 425 1 334 1 77 1 510 1
534 0 5 318 1 146 1 301 1 199 1 233 1
535 0 5 382 1 243 1 354 1 700 1 598 1
536 0 5 121 1 449 1 454 1 698 1 226 1
537 0 5 796 1 4 1 617 1 764 1 69 1
538 0 5 655 1 72 1 354 1 535 1 685 1
539 0 5 220 1 6 1 700 1 320 1 78 1
540 0 5 30 1 192 1 722 1 429 1 237 1
541 0 5 511 1 759 1 346 1 484 1 303 1
542 0 5 666 1 44 1 90 1 321 1 776 1
543 0 5 13 1 789 1 683 1 603 1 691 1
544 0 5 699 1 714 1 672 1 342 1 574 1
545 0 5 39 1 448 1 61 1 200 1 693 1
546 0 5 204 1 196 1 736 1 768 1 650 1
547 0 5 264 1 225 1 285 1 173 1 748 1
548 0 5 344 1 715 1 80 1 414 1 343 1
549 0 5 302 1 64 1 614 1 86 1 108 1
550 0 5 313 1 583 1 257 1 645 1 461 1
551 0 5 200 1 605 1 629 1 545 1 78 1
552 0 5 766 1 600 1 636 1 632 1 261 1
553 0 5 491 1 276 1 23 1 506 1 35 1
554 0 5 741 1 396 1 568 1 182 1 590 1
555 0 5 126 1 429 1 156 1 336 1 237 1
556 0 5 812 1 287 1 75 1 585 1 456 1
557 0 5 408 1 616 1 628 1 778 1 742 1
558 0 5 528 1 295 1 12 1 21 1 468 1
559 0 5 740 1 263 1 481 1 141 1 46 1
560 0 5 266 1 530 1 684 1 212 1 194 1
561 0 5 411 1 690 1 322 1 737 1 384 1
562 0 5 784 1 145 1 455 1 300 1 639 1
563 0 5 454 1 71 1 225 1 449 1 522 1
564 0 5 228 1 610 1 688 1 218 1 486 1
565 0 5 750 1 163 1 167 1 675 1 773 1
566 0 5 230 1 609 1 665 1 160 1 288 1
567 0 5 459 1 245 1 364 1 247 1 119 1
568 0 5 396 1 286 1 554 1 741 1 590 1
569 0 5 47 1 91 1 10 1 188 1 660 1
570 0 5 45 1 23 1 707 1 5 1 276 1
571 0 5 379 1 235 1 229 1 515 1 495 1
572 0 5 184 1 520 1 188 1 120 1 280 1
573 0 5 341 1 586 1 814 1 143 1 677 1
574 0 5 672 1 688 1 342 1 80 1 544 1
575 0 5 445 1 273 1 128 1 12 1 79 1
576 0 5 363 1 495 1 642 1 624 1 705 1
577 0 5 694 1 459 1 247 1 209 1 620 1
578 0 5 458 1 728 1 336 1 526 1 156 1
579 0 5 247 1 294 1 705 1 29 1 624 1
580 0 5 326 1 620 1 643 1 245 1 651 1
581 0 5 798 1 116 1 517 1 714 1 699 1
582 0 5 252 1 387 1 289 1 355 1 9 1
583 0 5 313 1 347 1 550 1 257 1 209 1
584 0 5 271 1 68 1 248 1 183 1 647 1
585 0 5 103 1 456 1 556 1 287 1 133 1
586 0 5 573 1 341 1 814 1 143 1 394 1
587 0 5 327 1 495 1 422 1 427 1 340 1
588 0 5 381 1 721 1 469 1 320 1 751 1
589 0 5 42 1 815 1 105 1 348 1 513 1
590 0 5 182 1 396 1 286 1 805 1 554 1
591 0 5 268 1 54 1 349 1 67 1 390 1
592 0 5 282 1 719 1 223 1 497 1 265 1
593 0 5 32 1 148 1 704 1 163 1 237 1
594 0 5 31 1 311 1 527 1 62 1 137 1
595 0 5 368 1 490 1 621 1 525 1 259 1
596 0 5 742 1 292 1 640 1 253 1 408 1
597 0 5 477 1 106 1 431 1 476 1 439 1
598 0 5 17 1 382 1 700 1 181 1 732 1
599 0 5 610 1 218 1 688 1 701 1 633 1
600 0 5 632 1 766 1 552 1 63 1 96 1
601 0 5 442 1 777 1 761 1 162 1 348 1
602 0 5 671 1 292 1 488 1 470 1 113 1
603 0 5 623 1 637 1 691 1 13 1 543 1
604 0 5 48 1 324 1 178 1 238 1 789 1
605 0 5 200 1 629 1 220 1 551 1 463 1
606 0 5 380 1 316 1 516 1 687 1 88 1
607 0 5 149 1 812 1 708 1 388 1 18 1
608 0 5 216 1 667 1 249 1 819 1 123 1
609 0 5 157 1 566 1 193 1 267 1 230 1
610 0 5 599 1 218 1 564 1 688 1 228 1
611 0 5 70 1 379 1 340 1 235 1 427 1
612 0 5 713 1 343 1 129 1 701 1 633 1
613 0 5 24 1 493 1 282 1 26 1 719 1
614 0 5 86 1 302 1 549 1 686 1 689 1
615 0 5 205 1 686 1 206 1 369 1 270 1
616 0 5 389 1 557 1 778 1 419 1 640 1
617 0 5 4 1 537 1 269 1 649 1 788 1
618 0 5 166 1 292 1 683 1 602 1 13 1
619 0 5 168 1 806 1 420 1 132 1 797 1
620 0 5 580 1 459 1 326 1 453 1 678 1
621 0 5 595 1 368 1 490 1 366 1 259 1
622 0 5 399 1 255 1 339 1 479 1 664 1
623 0 5 603 1 637 1 691 1 224 1 683 1
624 0 5 642 1 364 1 294 1 781 1 576 1
625 0 5 397 1 406 1 490 1 525 1 455 1
626 0 5 417 1 499 1 258 1 409 1 127 1
627 0 5 872 1 864 1 865 1 866 1 867 1
628 0 5 322 1 408 1 654 1 557 1 517 1
629 0 5 695 1 693 1 605 1 551 1 61 1
630 0 5 509 1 377 1 391 1 350 1 251 1
631 0 5 462 1 754 1 53 1 41 1 290 1
632 0 5 63 1 600 1 766 1 96 1 552 1
633 0 5 343 1 599 1 80 1 218 1 610 1
634 0 5 426 1 794 1 472 1 480 1 145 1
635 0 5 699 1 304 1 798 1 581 1 714 1
636 0 5 202 1 261 1 766 1 479 1 319 1
637 0 5 623 1 224 1 115 1 603 1 77 1
638 0 5 127 1 712 1 232 1 325 1 141 1
639 0 5 142 1 28 1 300 1 180 1 562 1
640 0 5 742 1 81 1 596 1 408 1 616 1
641 0 5 24 1 176 1 337 1 678 1 521 1
642 0 5 624 1 576 1 705 1 363 1 294 1
643 0 5 651 1 58 1 580 1 119 1 245 1
644 0 5 737 1 734 1 692 1 60 1 332 1
645 0 5 256 1 257 1 550 1 461 1 394 1
646 0 5 439 1 413 1 476 1 106 1 597 1
647 0 5 177 1 271 1 248 1 815 1 717 1
648 0 5 329 1 361 1 104 1 22 1 375 1
649 0 5 731 1 351 1 617 1 788 1 663 1
650 0 5 739 1 215 1 278 1 546 1 196 1
651 0 5 643 1 505 1 58 1 424 1 580 1
652 0 5 331 1 294 1 386 1 740 1 705 1
653 0 5 468 1 12 1 132 1 205 1 49 1
654 0 5 116 1 517 1 628 1 408 1 714 1
655 0 5 685 1 538 1 72 1 117 1 535 1
656 0 5 111 1 497 1 501 1 403 1 356 1
657 0 5 767 1 36 1 197 1 675 1 532 1
658 0 5 203 1 307 1 796 1 706 1 725 1
659 0 5 805 1 138 1 479 1 202 1 182 1
660 0 5 188 1 47 1 802 1 10 1 120 1
661 0 5 185 1 735 1 307 1 731 1 772 1
662 0 5 489 1 689 1 686 1 614 1 349 1
663 0 5 201 1 496 1 99 1 772 1 788 1
664 0 5 529 1 255 1 138 1 437 1 816 1
665 0 5 230 1 288 1 447 1 109 1 387 1
666 0 5 542 1 44 1 90 1 321 1 395 1
667 0 5 272 1 129 1 216 1 608 1 249 1
668 0 5 151 1 35 1 23 1 284 1 40 1
669 0 5 74 1 136 1 775 1 347 1 583 1
670 0 5 457 1 432 1 315 1 37 1 175 1
671 0 5 113 1 602 1 292 1 780 1 755 1
672 0 5 574 1 544 1 342 1 304 1 715 1
673 0 5 195 1 221 1 144 1 808 1 135 1
674 0 5 46 1 513 1 785 1 340 1 418 1
675 0 5 750 1 36 1 93 1 167 1 565 1
676 0 5 274 1 768 1 309 1 748 1 169 1
677 0 5 71 1 226 1 523 1 765 1 449 1
678 0 5 453 1 74 1 620 1 641 1 531 1
679 0 5 15 1 809 1 407 1 147 1 534 1
680 0 5 78 1 711 1 483 1 220 1 189 1
681 0 5 344 1 414 1 310 1 715 1 682 1
682 0 5 749 1 310 1 414 1 433 1 484 1
683 0 5 488 1 13 1 330 1 543 1 618 1
684 0 5 241 1 530 1 97 1 560 1 710 1
685 0 5 117 1 655 1 538 1 598 1 535 1
686 0 5 38 1 662 1 615 1 614 1 349 1
687 0 5 478 1 380 1 194 1 606 1 250 1
688 0 5 80 1 574 1 610 1 599 1 228 1
689 0 5 349 1 662 1 614 1 686 1 302 1
690 0 5 561 1 384 1 737 1 411 1 332 1
691 0 5 510 1 789 1 603 1 77 1 623 1
692 0 5 60 1 644 1 787 1 734 1 757 1
693 0 5 61 1 746 1 393 1 448 1 456 1
694 0 5 577 1 453 1 531 1 620 1 347 1
695 0 5 61 1 463 1 629 1 693 1 89 1
696 0 5 94 1 430 1 21 1 64 1 168 1
697 0 5 19 1 405 1 69 1 524 1 190 1
698 0 5 454 1 225 1 121 1 536 1 522 1
699 0 5 544 1 714 1 798 1 635 1 304 1
700 0 5 382 1 539 1 320 1 6 1 243 1
701 0 5 218 1 599 1 610 1 343 1 688 1
702 0 5 782 1 751 1 519 1 187 1 184 1
703 0 5 264 1 370 1 66 1 421 1 34 1
704 0 5 722 1 593 1 32 1 362 1 163 1
705 0 5 29 1 294 1 642 1 331 1 576 1
706 0 5 485 1 203 1 658 1 402 1 725 1
707 0 5 5 1 570 1 45 1 23 1 816 1
708 0 5 244 1 500 1 246 1 452 1 607 1
709 0 5 101 1 55 1 401 1 504 1 762 1
710 0 5 241 1 358 1 400 1 118 1 684 1
711 0 5 680 1 721 1 483 1 187 1 200 1
712 0 5 638 1 325 1 33 1 127 1 416 1
713 0 5 129 1 612 1 272 1 701 1 633 1
714 0 5 116 1 778 1 342 1 544 1 699 1
715 0 5 80 1 344 1 343 1 548 1 414 1
716 0 5 351 1 201 1 673 1 807 1 195 1
717 0 5 42 1 815 1 279 1 105 1 513 1
718 0 5 511 1 790 1 474 1 87 1 277 1
719 0 5 223 1 769 1 592 1 282 1 613 1
720 0 5 57 1 819 1 249 1 324 1 298 1
721 0 5 711 1 588 1 187 1 469 1 680 1
722 0 5 704 1 32 1 540 1 30 1 593 1
723 0 5 409 1 499 1 232 1 84 1 258 1
724 0 5 139 1 393 1 746 1 448 1 693 1
725 0 5 485 1 658 1 706 1 152 1 511 1
726 0 5 15 1 147 1 809 1 518 1 679 1
727 0 5 730 1 211 1 143 1 317 1 313 1
728 0 5 578 1 156 1 320 1 336 1 381 1
729 0 5 150 1 383 1 466 1 212 1 217 1
730 0 5 211 1 727 1 550 1 313 1 461 1
731 0 5 649 1 201 1 496 1 661 1 772 1
732 0 5 181 1 17 1 753 1 220 1 598 1
733 0 5 346 1 749 1 484 1 402 1 541 1
734 0 5 332 1 644 1 692 1 757 1 140 1
735 0 5 185 1 164 1 661 1 485 1 307 1
736 0 5 768 1 196 1 546 1 204 1 278 1
737 0 5 384 1 644 1 690 1 561 1 332 1
738 0 5 186 1 510 1 7 1 789 1 334 1
739 0 5 650 1 196 1 395 1 546 1 90 1
740 0 5 559 1 481 1 141 1 263 1 652 1
741 0 5 554 1 276 1 568 1 792 1 182 1
742 0 5 596 1 640 1 408 1 557 1 616 1
743 0 5 303 1 759 1 371 1 161 1 541 1
744 0 5 183 1 499 1 155 1 248 1 271 1
745 0 5 263 1 141 1 428 1 46 1 559 1
746 0 5 393 1 724 1 693 1 117 1 139 1
747 0 5 787 1 811 1 757 1 134 1 253 1
748 0 5 169 1 676 1 204 1 278 1 264 1
749 0 5 733 1 682 1 346 1 484 1 541 1
750 0 5 565 1 675 1 197 1 657 1 167 1
751 0 5 519 1 782 1 702 1 187 1 469 1
752 0 5 360 1 774 1 95 1 309 1 66 1
753 0 5 803 1 200 1 732 1 78 1 254 1
754 0 5 365 1 462 1 631 1 20 1 366 1
755 0 5 780 1 113 1 253 1 470 1 671 1
756 0 5 424 1 777 1 804 1 85 1 505 1
757 0 5 134 1 747 1 470 1 253 1 451 1
758 0 5 120 1 520 1 188 1 187 1 721 1
759 0 5 743 1 541 1 303 1 161 1 346 1
760 0 5 802 1 291 1 167 1 280 1 124 1
761 0 5 345 1 435 1 442 1 11 1 601 1
762 0 5 101 1 504 1 709 1 55 1 401 1
763 0 5 388 1 170 1 34 1 121 1 752 1
764 0 5 307 1 796 1 50 1 69 1 185 1
765 0 5 226 1 305 1 174 1 677 1 71 1
766 0 5 600 1 552 1 636 1 110 1 632 1
767 0 5 657 1 36 1 10 1 93 1 227 1
768 0 5 736 1 676 1 204 1 546 1 278 1
769 0 5 223 1 719 1 355 1 387 1 592 1
770 0 5 466 1 214 1 438 1 250 1 83 1
771 0 5 390 1 349 1 614 1 86 1 392 1
772 0 5 496 1 185 1 99 1 663 1 4 1
773 0 5 412 1 565 1 148 1 475 1 163 1
774 0 5 360 1 18 1 752 1 149 1 388 1
775 0 5 347 1 531 1 669 1 74 1 694 1
776 0 5 377 1 3 1 100 1 44 1 159 1
777 0 5 804 1 508 1 756 1 442 1 410 1
778 0 5 116 1 714 1 389 1 616 1 342 1
779 0 5 533 1 77 1 425 1 224 1 115 1
780 0 5 113 1 755 1 253 1 292 1 671 1
781 0 5 515 1 119 1 364 1 624 1 567 1
782 0 5 751 1 702 1 473 1 721 1 381 1
783 0 5 352 1 530 1 399 1 684 1 786 1
784 0 5 562 1 794 1 145 1 455 1 426 1
785 0 5 674 1 418 1 279 1 416 1 25 1
786 0 5 399 1 212 1 383 1 352 1 560 1
787 0 5 747 1 60 1 692 1 811 1 322 1
788 0 5 201 1 99 1 135 1 496 1 663 1
789 0 5 171 1 543 1 691 1 376 1 604 1
790 0 5 474 1 152 1 718 1 415 1 153 1
791 0 5 330 1 43 1 470 1 333 1 488 1
792 0 5 138 1 741 1 816 1 5 1 437 1
793 0 5 505 1 504 1 208 1 11 1 756 1
794 0 5 51 1 784 1 634 1 145 1 300 1
795 0 5 306 1 681 1 875 1 867 1 868 1
796 0 5 50 1 764 1 307 1 537 1 658 1
797 0 5 372 1 132 1 806 1 619 1 180 1
798 0 5 581 1 116 1 699 1 714 1 517 1
799 0 5 8 1 407 1 809 1 514 1 293 1
800 0 5 175 1 107 1 315 1 400 1 358 1
801 0 5 351 1 221 1 716 1 373 1 390 1
802 0 5 760 1 291 1 660 1 188 1 124 1
803 0 5 753 1 254 1 200 1 78 1 732 1
804 0 5 410 1 777 1 85 1 756 1 508 1
805 0 5 659 1 182 1 590 1 138 1 792 1
806 0 5 619 1 797 1 372 1 420 1 653 1
807 0 5 498 1 262 1 465 1 311 1 190 1
808 0 5 465 1 195 1 311 1 498 1 144 1
809 0 5 407 1 15 1 518 1 799 1 8 1
810 0 5 231 1 237 1 578 1 458 1 728 1
811 0 5 322 1 747 1 60 1 787 1 253 1
812 0 5 556 1 607 1 287 1 61 1 149 1
813 0 5 98 1 359 1 38 1 106 1 686 1
814 0 5 523 1 341 1 586 1 573 1 71 1
815 0 5 589 1 42 1 717 1 647 1 348 1
816 0 5 92 1 5 1 792 1 118 1 529 1
817 0 5 14 1 267 1 215 1 157 1 278 1
818 0 5 371 1 129 1 272 1 460 1 608 1
819 0 5 57 1 720 1 374 1 608 1 216 1
820 0 5 880 1 881 1 864 1 865 1 866 1
821 0 5 880 1 881 1 864 1 865 1 866 1
822 0 5 880 1 881 1 864 1 865 1 866 1
823 0 5 880 1 881 1 864 1 865 1 866 1
824 0 5 880 1 881 1 864 1 865 1 866 1
825 0 5 880 1 881 1 864 1 865 1 866 1
826 0 5 880 1 881 1 864 1 865 1 866 1
827 0 5 880 1 881 1 864 1 865 1 866 1
828 0 5 880 1 881 1 864 1 865 1 866 1
829 0 5 880 1 881 1 864 1 865 1 866 1
830 0 5 880 1 881 1 864 1 865 1 866 1
831 0 5 880 1 881 1 864 1 865 1 866 1
832 0 5 880 1 881 1 864 1 865 1 866 1
833 0 5 880 1 881 1 864 1 865 1 866 1
834 0 5 880 1 881 1 864 1 865 1 866 1
835 0 5 880 1 881 1 864 1 865 1 866 1
836 0 5 880 1 881 1 864 1 865 1 866 1
837 0 5 880 1 881 1 864 1 865 1 866 1
838 0 5 880 1 881 1 864 1 865 1 866 1
839 0 5 880 1 881 1 864 1 865 1 866 1
840 0 5 880 1 881 1 864 1 865 1 866 1
841 0 5 880 1 881 1 864 1 865 1 866 1
842 0 5 880 1 881 1 864 1 865 1 866 1
843 0 5 880 1 881 1 864 1 865 1 866 1
844 0 5 880 1 881 1 864 1 865 1 866 1
845 0 5 880 1 881 1 864 1 865 1 866 1
846 0 5 880 1 881 1 864 1 865 1 866 1
847 0 5 880 1 881 1 864 1 865 1 866 1
848 0 5 880 1 881 1 864 1 865 1 866 1
849 0 5 880 1 881 1 864 1 865 1 866 1
850 0 5 880 1 881 1 864 1 865 1 866 1
851 0 5 880 1 881 1 864 1 865 1 866 1
852 0 5 880 1 881 1 864 1 865 1 866 1
853 0 5 880 1 881 1 864 1 865 1 866 1
854 0 5 880 1 881 1 864 1 865 1 866 1
855 0 5 880 1 881 1 864 1 865 1 866 1
856 0 5 880 1 881 1 864 1 865 1 866 1
857 0 5 880 1 881 1 864 1 865 1 866 1
858 0 5 880 1 881 1 864 1 865 1 866 1
859 0 5 880 1 881 1 864 1 865 1 866 1
860 0 5 880 1 881 1 864 1 865 1 866 1
861 0 5 880 1 881 1 864 1 865 1 866 1
862 0 5 880 1 881 1 864 1 865 1 866 1
863 0 5 880 1 881 1 864 1 865 1 866 1
864 0 5 880 1 881 1 864 1 865 1 866 1
865 0 5 880 1 881 1 864 1 865 1 866 1
866 0 5 880 1 881 1 864 1 865 1 866 1
867 0 5 880 1 881 1 864 1 865 1 866 1
868 0 5 880 1 881 1 864 1 865 1 866 1
869 0 5 880 1 881 1 864 1 865 1 866 1
870 0 5 880 1 881 1 864 1 865 1 866 1
871 0 5 880 1 881 1 864 1 865 1 866 1
872 0 5 880 1 881 1 864 1 865 1 866 1
873 0 5 880 1 881 1 864 1 865 1 866 1
874 0 5 880 1 881 1 864 1 865 1 866 1
875 0 5 880 1 881 1 864 1 865 1 866 1
876 0 5 880 1 881 1 864 1 865 1 866 1
877 0 5 880 1 881 1 864 1 865 1 866 1
878 0 5 880 1 881 1 864 1 865 1 866 1
879 0 5 880 1 881 1 864 1 865 1 866 1
880 0 5 880 1 881 1 864 1 865 1 866 1
881 0 5 880 1 881 1 864 1 865 1 866 1
882 0 5 880 1 881 1 864 1 865 1 866 1
883 0 5 880 1 881 1 864 1 865 1 866 1
884 0 5 880 1 881 1 864 1 865 1 866 1
885 0 5 880 1 881 1 864 1 865 1 866 1
886 0 5 880 1 881 1 864 1 865 1 866 1
887 0 5 880 1 881 1 864 1 865 1 866 1
888 0 5 880 1 881 1 864 1 865 1 866 1
889 0 5 880 1 881 1 864 1 865 1 866 1
890 0 5 880 1 881 1 864 1 865 1 866 1
891 0 5 880 1 881 1 864 1 865 1 866 1
892 0 5 880 1 881 1 864 1 865 1 866 1
893 0 5 880 1 881 1 864 1 865 1 866 1
894 0 5 880 1 881 1 864 1 865 1 866 1
895 0 5 880 1 881 1 864 1 865 1 866 1
896 0 5 880 1 881 1 864 1 865 1 866 1
897 0 5 880 1 881 1 864 1 865 1 866 1
898 0 5 880 1 881 1 864 1 865 1 866 1
899 0 5 880 1 881 1 864 1 865 1 866 1
900 0 5 880 1 881 1 864 1 865 1 866 1
901 0 5 880 1 881 1 864 1 865 1 866 1
902 0 5 880 1 881 1 864 1 865 1 866 1
903 0 5 880 1 881 1 864 1 865 1 866 1
904 0 5 880 1 881 1 864 1 865 1 866 1
905 0 5 880 1 881 1 864 1 865 1 866 1
906 0 5 880 1 881 1 864 1 865 1 866 1
907 0 5 880 1 881 1 864 1 865 1 866 1
908 0 5 880 1 881 1 864 1 865 1 866 1
909 0 5 880 1 881 1 864 1 865 1 866 1
910 0 5 880 1 881 1 864 1 865 1 866 1
911 0 5 880 1 881 1 864 1 865 1 866 1
912 0 5 880 1 881 1 864 1 865 1 866 1
913 0 5 880 1 881 1 864 1 865 1 866 1
914 0 5 880 1 881 1 864 1 865 1 866 1
915 0 5 880 1 881 1 864 1 865 1 866 1
916 0 5 880 1 881 1 864 1 865 1 866 1
917 0 5 880 1 881 1 864 1 865 1 866 1
918 0 5 880 1 881 1 864 1 865 1 866 1
919 0 5 880 1 881 1 864 1 865 1 866 1
920 0 5 880 1 881 1 864 1 865 1 866 1
921 0 5 880 1 881 1 864 1 865 1 866 1
922 0 5 880 1 881 1 864 1 865 1 866 1
923 0 5 880 1 881 1 864 1 865 1 866 1
924 0 5 880 1 881 1 864 1 865 1 866 1
925 0 5 880 1 881 1 864 1 865 1 866 1
926 0 5 880 1 881 1 864 1 865 1 866 1
927 0 5 880 1 881 1 864 1 865 1 866 1
928 0 5 880 1 881 1 864 1 865 1 866 1
929 0 5 880 1 881 1 864 1 865 1 866 1
930 0 5 880 1 881 1 864 1 865 1 866 1
931 0 5 880 1 881 1 864 1 865 1 866 1
932 0 5 880 1 881 1 864 1 865 1 866 1
933 0 5 880 1 881 1 864 1 865 1 866 1
934 0 5 880 1 881 1 864 1 865 1 866 1
935 0 5 880 1 881 1 864 1 865 1 866 1
936 0 5 880 1 881 1 864 1 865 1 866 1
937 0 5 880 1 881 1 864 1 865 1 866 1
938 0 5 880 1 881 1 864 1 865 1 866 1
939 0 5 880 1 881 1 864 1 865 1 866 1
940 0 5 880 1 881 1 864 1 865 1 866 1
941 0 5 880 1 881 1 864 1 865 1 866 1
942 0 5 880 1 881 1 864 1 865 1 866 1
943 0 5 880 1 881 1 864 1 865 1 866 1
944 0 5 880 1 881 1 864 1 865 1 866 1
945 0 5 880 1 881 1 864 1 865 1 866 1
946 0 5 880 1 881 1 864 1 865 1 866 1
947 0 5 880 1 881 1 864 1 865 1 866 1
948 0 5 880 1 881 1 864 1 865 1 866 1
949 0 5 880 1 881 1 864 1 865 1 866 1
950 0 5 880 1 881 1 864 1 865 1 866 1
951 0 5 880 1 881 1 864 1 865 1 866 1
952 0 5 880 1 881 1 864 1 865 1 866 1
953 0 5 880 1 881 1 864 1 865 1 866 1
954 0 5 880 1 881 1 864 1 865 1 866 1
955 0 5 880 1 881 1 864 1 865 1 866 1
956 0 5 880 1 881 1 864 1 865 1 866 1
957 0 5 880 1 881 1 864 1 865 1 866 1
958 0 5 880 1 881 1 864 1 865 1 866 1
959 0 5 880 1 881 1 864 1 865 1 866 1
960 0 5 880 1 881 1 864 1 865 1 866 1
961 0 5 880 1 881 1 864 1 865 1 866 1
962 0 5 880 1 881 1 864 1 865 1 866 1
963 0 5 880 1 881 1 864 1 865 1 866 1
964 0 5 880 1 881 1 864 1 865 1 866 1
965 0 5 880 1 881 1 864 1 865 1 866 1
966 0 5 880 1 881 1 864 1 865 1 866 1
967 0 5 880 1 881 1 864 1 865 1 866 1
968 0 5 880 1 881 1 864 1 865 1 866 1
969 0 5 880 1 881 1 864 1 865 1 866 1
970 0 5 880 1 881 1 864 1 865 1 866 1
971 0 5 880 1 881 1 864 1 865 1 866 1
972 0 5 880 1 881 1 864 1 865 1 866 1
973 0 5 880 1 881 1 864 1 865 1 866 1
974 0 5 880 1 881 1 864 1 865 1 866 1
975 0 5 880 1 881 1 864 1 865 1 866 1
976 0 5 880 1 881 1 864 1 865 1 866 1
977 0 5 880 1 881 1 864 1 865 1 866 1
978 0 5 880 1 881 1 864 1 865 1 866 1
979 0 5 880 1 881 1 864 1 865 1 866 1
980 0 5 880 1 881 1 864 1 865 1 866 1
981 0 5 880 1 881 1 864 1 865 1 866 1
982 0 5 880 1 881 1 864 1 865 1 866 1
983 0 5 880 1 881 1 864 1 865 1 866 1
984 0 5 880 1 881 1 864 1 865 1 866 1
985 0 5 880 1 881 1 864 1 865 1 866 1
986 0 5 880 1 881 1 864 1 865 1 866 1
987 0 5 880 1 881 1 864 1 865 1 866 1
988 0 5 880 1 881 1 864 1 865 1 866 1
989 0 5 880 1 881 1 864 1 865 1 866 1
-1
EOF
